NAME : RC107.6427.tour
COMMENT : Cost = 0_6427
COMMENT : Found by LKH [Keld Helsgaun] Wed Sep 13 18:34:39 2017
TYPE : TOUR
DIMENSION : 56
TOUR_SECTION
1
24
26
22
50
20
19
49
23
21
25
55
42
39
43
45
44
41
38
36
37
40
54
51
56
3
7
8
9
6
4
2
46
47
5
52
32
30
28
29
27
35
33
31
34
53
12
13
15
48
18
17
16
14
10
11
-1
EOF
